3 24 1 10
2 13 17 14 8 13 3 2 4 7 18 2 4 18 16 14 17 1 2 19 9 6 16 20 
7.84 0.92 13.86 9.63 6.08 7.23 10.05 12.22 3.42 13.58 13.48 4.31 13.43 15.37 9.05 12.94 5.17 3.97 5.56 14.55 9.51 8.27 2.05 8.33 
8 8 8 8 8 8 8 8 8 8 8 8 8 8 8 8 8 8 8 8 8 8 8 8 
8.17 11.76 4.73 14.12 5.47 10.32 5.15 1.64 13.35 11.46 2.81 7.29 3.78 6.35 2.63 5.18 0.24 7.6 6.81 13.87 13.5 15.07 14.44 4.52 
1 1 1 1 1 1 1 1 1 1 1 1 1 1 1 1 1 1 1 1 1 1 1 1 
1 1 1 1 1 1 1 1 1 1 1 1 1 1 1 1 1 1 1 1 1 1 1 1 
1 1 1 1 1 1 1 1 1 1 1 1 1 1 1 1 1 1 1 1 1 1 1 1 
0.01 0.01 0.01 0.01 0.01 0.01 0.01 0.01 0.01 0.01 0.01 0.01 0.01 0.01 0.01 0.01 0.01 0.01 0.01 0.01 0.01 0.01 0.01 0.01 
0.02 0.02 0.02 0.02 0.02 0.02 0.02 0.02 0.02 0.02 0.02 0.02 0.02 0.02 0.02 0.02 0.02 0.02 0.02 0.02 0.02 0.02 0.02 0.02 
1 1 1 1 1 1 1 1 1 1 1 1 1 1 1 1 1 1 1 1 1 1 1 1 
